java.io.BufferedInputStream@36baf30c
tw.exact.Graph@2ff4acd0
s td 8 5 12
b 1 1 2 3 5 12
b 2 1 3 5 8 12
b 3 3 4 5 8 12
b 4 4 5 11 12
b 5 3 5 7 8 12
b 6 5 6 7 12
b 7 1 2 3 10 12
b 8 1 9 10 12
1 2
1 7
2 3
2 5
3 4
5 6
7 8
